NAME KNAPSACK
OBJSENSE
 MAX
ROWS
 N OBJ
 L LIM1
COLUMNS
 MARK0000 'MARKER' 'INTORG'
 X1 OBJ 4 LIM1 2
 X2 OBJ 5 LIM1 3
 X3 OBJ 12 LIM1 5
 X4 OBJ 14 LIM1 6
 MARK0001 'MARKER' 'INTEND'
RHS
 RHS LIM1 9
BOUNDS
 UP bnd X1 1
 UP bnd X2 1
 UP bnd X3 1
 UP bnd X4 1
ENDATA
